NAME: test1386
TYPE: TSP
DIMENSION: 11
EDGE_WEIGHT_TYPE: EUC_2D
NODE_COORD_SECTION
1 24.90893103942894 35.97413872211411
2 19.685146499836257 44.74932102257301
3 52.055532762051406 27.99085061887624
4 8.40011834479284 75.36158979444123
5 19.336326643302925 82.12372154676412
6 71.83104153379483 87.09040854530885
7 17.37584592122716 70.09944590584858
8 44.20311063312169 32.446239262203434
9 55.58277515194733 92.23435662162032
10 72.39357613802082 73.89470771463378
11 39.475165075273345 52.97347403137193
EOF
